-1 -1
-1 -1
-1 -1
-1 -1
14 5
-1 -1
-1 -1
-1 -1
42 5
-1 -1
-1 -1
-1 -1
-1 -1
-1 -1
-1 -1
-1 -1
-1 -1
-1 -1
40 4
29 5
-1 -1
-1 -1
-1 -1
-1 -1
19 5
-1 -1
-1 -1
6 4
-1 -1
-1 -1
-1 -1
-1 -1
-1 -1
-1 -1
-1 -1
-1 -1
-1 -1
-1 -1
-1 -1
-1 -1
-1 -1
-1 -1
-1 -1
-1 -1
-1 -1
-1 -1
-1 -1
-1 -1
-1 -1
-1 -1
24 5
-1 -1
-1 -1
-1 -1
44 3
-1 -1
-1 -1
-1 -1
20 4
-1 -1
30 3
-1 -1
36 4
-1 -1
43 3
-1 -1
-1 -1
23 5
-1 -1
25 5
-1 -1
-1 -1
26 4
15 5
21 4
11 5
12 4
-1 -1
-1 -1
-1 -1
-1 -1
-1 -1
28 4
31 4
-1 -1
5 4
0 5
-1 -1
-1 -1
29 4
-1 -1
3 5
-1 -1
-1 -1
-1 -1
-1 -1
-1 -1
-1 -1
-1 -1
-1 -1
10 5
1 5
16 4
-1 -1
-1 -1
-1 -1
8 5
13 4
-1 -1
-1 -1
-1 -1
7 4
-1 -1
9 4
-1 -1
-1 -1
-1 -1
-1 -1
15 4
-1 -1
-1 -1
17 4
24 4
-1 -1
-1 -1
-1 -1
-1 -1
19 4
-1 -1
20 3
40 3
-1 -1
2 4
-1 -1
22 4
-1 -1
-1 -1
4 4
-1 -1
-1 -1
34 4
-1 -1
-1 -1
37 3
-1 -1
-1 -1
-1 -1
-1 -1
18 4
-1 -1
-1 -1
-1 -1
14 4
25 4
8 4
35 3
10 4
-1 -1
3 4
23 4
-1 -1
-1 -1
-1 -1
-1 -1
1 4
-1 -1
-1 -1
-1 -1
26 3
42 4
27 4
-1 -1
-1 -1
38 4
-1 -1
-1 -1
34 3
5 3
-1 -1
-1 -1
42 3
-1 -1
-1 -1
31 3
-1 -1
-1 -1
-1 -1
15 3
-1 -1
-1 -1
4 3
-1 -1
-1 -1
-1 -1
-1 -1
-1 -1
21 3
-1 -1
0 4
11 4
-1 -1
-1 -1
-1 -1
27 3
44 2
25 3
32 3
18 3
14 3
33 3
6 3
-1 -1
-1 -1
-1 -1
-1 -1
-1 -1
-1 -1
37 2
36 3
-1 -1
12 3
-1 -1
-1 -1
-1 -1
-1 -1
28 3
22 3
41 3
38 3
-1 -1
24 3
11 3
13 3
2 3
16 3
0 3
1 3
29 3
15 2
7 3
10 3
19 3
-1 -1
39 3
-1 -1
-1 -1
-1 -1
23 3
26 2
17 3
-1 -1
38 2
-1 -1
41 2
8 3
31 2
3 3
-1 -1
35 2
13 2
36 2
-1 -1
40 2
-1 -1
-1 -1
43 2
24 2
21 2
39 2
9 3
-1 -1
-1 -1
-1 -1
-1 -1
-1 -1
23 2
-1 -1
33 2
28 2
-1 -1
9 2
5 2
12 2
7 2
14 2
30 2
20 2
11 2
34 2
25 2
32 2
19 2
-1 -1
42 2
16 2
3 2
2 2
27 2
8 2
29 2
10 2
17 2
-1 -1
1 2
18 2
34 1
22 2
44 1
26 1
38 1
4 2
36 1
42 1
41 1
43 1
39 1
30 1
18 1
0 2
37 1
6 2
40 1
27 1
32 1
33 1
25 1
35 1
31 1
16 1
28 1
14 1
23 1
12 1
29 1
24 1
17 1
20 1
19 1
22 1
21 1
13 1
9 1
15 1
11 1
10 1
7 1
8 1
6 1
5 1
4 1
3 1
2 1
1 1
0 1
44 0
43 0
42 0
41 0
40 0
39 0
38 0
37 0
36 0
35 0
34 0
33 0
32 0
31 0
30 0
29 0
28 0
27 0
26 0
25 0
24 0
23 0
22 0
21 0
20 0
19 0
18 0
17 0
16 0
15 0
14 0
13 0
12 0
11 0
10 0
9 0
8 0
7 0
6 0
5 0
4 0
3 0
2 0
1 0
0 0
-1 -1
